NAME : tsp_464_sol.txt
COMMENT : OR-Tools Guided Local Search
TYPE : TOUR
DIMENSION : 50
COST : 5711
STATUS : ROUTING_SUCCESS
GAP : 0.00% (Reference Solution)
TOUR_SECTION
1
6
29
25
39
27
12
4
30
16
35
8
32
43
24
14
42
40
11
45
46
26
38
5
17
9
19
47
37
3
28
50
44
33
36
18
31
15
48
7
20
23
49
13
34
41
10
22
2
21
-1
